Maximize
  0 x0 + 0 x1 - 11 x2 + 27 x3 + 0 x4 + 0 x5 + 0 x6 - 43 x7 + 0 x8 + 23 x9
   + 0 x10 + 22 x11 + 0 x12 - 41 x13 + 0 x14 + 13 x15 + 0 x16 + 0 x17
   + 0 x18 + 0 x19 + 0 x20 + 27 x21 - 7 x22 + 6 x23 - 6 x24 + 0 x25 + 0 x26
   + 0 x27 + 0 x28 + 0 x29 + 10 x30 + 0 x31 + 0 x32 + 0 x33 - 36 x34
   + 0 x35 + 0 x36 + 0 x37 + 17 x38 + 0 x39 + 17 x40 + 45 x41 + 0 x42
   + 0 x43 - 37 x44 - 33 x45 + 0 x46 + 0 x47 + 0 x48 + 0 x49 + 0 x50
   + 0 x51 - 17 x52 + 0 x53 + 46 x54 + 0 x55 - x56 + 0 x57 + 48 x58
   - 49 x59 + 0 x60 - 27 x61 + 0 x62 - 33 x63 + 47 x64 + 0 x65 + 0 x66
   - 42 x67 + 5 x68 + 0 x69 + [ - 64 x0 * x3 + 50 x0 * x5 - 82 x0 * x7
   - 74 x0 * x8 + 82 x0 * x10 + 12 x0 * x12 - 90 x0 * x17 + 42 x0 * x19
   + 4 x0 * x20 + 46 x0 * x22 - 40 x0 * x24 + 84 x0 * x25 + 28 x0 * x26
   - 98 x0 * x28 - 12 x0 * x29 + 2 x0 * x30 + 92 x0 * x33 - 32 x0 * x35
   - 82 x0 * x37 + 38 x0 * x39 + 70 x0 * x40 + 30 x0 * x44 + 14 x0 * x46
   + 46 x0 * x47 + 38 x0 * x48 - 98 x0 * x49 - 82 x0 * x52 + 2 x0 * x56
   + 6 x0 * x60 - 24 x0 * x61 + 2 x0 * x63 - 16 x0 * x64 + 86 x0 * x65
   + 23 x1 ^2 + 90 x1 * x7 + 36 x1 * x9 - 70 x1 * x12 - 20 x1 * x13
   + 92 x1 * x15 - 82 x1 * x16 - 54 x1 * x18 + 42 x1 * x19 - 40 x1 * x24
   - 72 x1 * x25 + 10 x1 * x27 - 34 x1 * x28 - 12 x1 * x31 + 20 x1 * x32
   - 66 x1 * x35 - 94 x1 * x38 + 38 x1 * x39 - 46 x1 * x41 - 60 x1 * x42
   + 62 x1 * x45 - 78 x1 * x46 - 6 x1 * x52 + 76 x1 * x54 + 36 x1 * x55
   + 16 x1 * x59 - 18 x1 * x60 + 94 x1 * x62 - 96 x1 * x63 + 24 x1 * x65
   + 34 x2 * x3 + 44 x2 * x6 - 16 x2 * x7 - 32 x2 * x9 + 72 x2 * x11
   - 72 x2 * x12 - 10 x2 * x13 - 58 x2 * x14 - 2 x2 * x15 + 36 x2 * x16
   + 64 x2 * x21 + 64 x2 * x22 + 60 x2 * x24 - 90 x2 * x27 + 26 x2 * x29
   - 64 x2 * x32 - 6 x2 * x33 - 88 x2 * x34 + 50 x2 * x36 - 14 x2 * x37
   - 60 x2 * x38 - 66 x2 * x42 - 32 x2 * x44 + 46 x2 * x45 + 14 x2 * x49
   + 6 x2 * x52 - 30 x2 * x55 - 8 x2 * x56 - 78 x2 * x57 - 54 x2 * x58
   + 50 x2 * x62 - 62 x2 * x66 + 68 x2 * x68 - 18 x3 ^2 + 32 x3 * x7
   - 86 x3 * x8 + 56 x3 * x10 - 16 x3 * x11 - 90 x3 * x12 + 96 x3 * x16
   + 2 x3 * x17 + 44 x3 * x18 - 96 x3 * x19 - 28 x3 * x20 + 14 x3 * x21
   + 2 x3 * x23 - 24 x3 * x24 - 18 x3 * x30 - 52 x3 * x31 + 10 x3 * x35
   + 72 x3 * x36 - 4 x3 * x37 + 52 x3 * x38 + 58 x3 * x44 - 50 x3 * x46
   - 6 x3 * x48 + 18 x3 * x49 + 28 x3 * x50 + 4 x3 * x51 - 38 x3 * x54
   - 42 x3 * x56 + 70 x3 * x57 - 16 x3 * x59 - 66 x3 * x60 + 68 x3 * x62
   - 32 x3 * x63 + 84 x3 * x65 + 16 x3 * x66 - 4 x3 * x68 - 35 x4 ^2
   + 64 x4 * x7 - 22 x4 * x11 - 66 x4 * x12 - 38 x4 * x14 + 68 x4 * x15
   + 10 x4 * x16 + 66 x4 * x20 - 62 x4 * x24 + 36 x4 * x26 - 50 x4 * x28
   - 2 x4 * x29 + 86 x4 * x30 + 66 x4 * x31 - 90 x4 * x32 - 82 x4 * x33
   - 48 x4 * x34 - 26 x4 * x36 + 78 x4 * x38 + 38 x4 * x39 + 40 x4 * x41
   + 44 x4 * x45 - 46 x4 * x46 + 60 x4 * x50 + 6 x4 * x53 + 80 x4 * x61
   - 56 x4 * x62 + 8 x4 * x69 + 40 x5 * x6 + 86 x5 * x7 - 56 x5 * x9
   + 24 x5 * x12 - 14 x5 * x13 - 98 x5 * x14 - 70 x5 * x18 - 82 x5 * x22
   - 6 x5 * x23 - 96 x5 * x28 - 20 x5 * x29 - 94 x5 * x31 + 54 x5 * x32
   - 4 x5 * x33 + 78 x5 * x35 + 24 x5 * x39 - 98 x5 * x43 - 2 x5 * x44
   - 56 x5 * x46 - 92 x5 * x47 + 78 x5 * x48 - 48 x5 * x50 - 92 x5 * x52
   - 12 x5 * x61 + 18 x5 * x62 - 50 x5 * x69 - 36 x6 ^2 + 78 x6 * x7
   - 30 x6 * x10 + 94 x6 * x11 - 86 x6 * x13 + 36 x6 * x18 - 8 x6 * x19
   + 60 x6 * x20 - 10 x6 * x23 + 64 x6 * x25 - 4 x6 * x26 + 20 x6 * x27
   + 6 x6 * x28 - 74 x6 * x29 - 36 x6 * x32 + 10 x6 * x35 - 74 x6 * x38
   - 86 x6 * x39 - 34 x6 * x40 - 54 x6 * x42 - 62 x6 * x43 + 36 x6 * x44
   - 36 x6 * x45 + 2 x6 * x52 + 90 x6 * x54 + 72 x6 * x56 - 80 x6 * x58
   + 80 x6 * x60 + 22 x6 * x61 - 54 x6 * x63 - 16 x6 * x65 + 8 x6 * x66
   - 44 x7 * x8 - 46 x7 * x9 - 14 x7 * x11 - 98 x7 * x12 + 34 x7 * x15
   - 4 x7 * x21 - 94 x7 * x24 + 68 x7 * x29 - 86 x7 * x30 - 86 x7 * x31
   - 10 x7 * x32 + 2 x7 * x33 - 56 x7 * x38 + 82 x7 * x39 + 18 x7 * x41
   + 16 x7 * x43 + 50 x7 * x45 - 40 x7 * x46 + 56 x7 * x47 - 86 x7 * x56
   - 48 x7 * x58 + 78 x7 * x59 - 94 x7 * x60 + 34 x7 * x61 - 12 x7 * x65
   + 14 x7 * x66 - 24 x7 * x67 - 40 x8 * x10 + 94 x8 * x12 + 36 x8 * x19
   - 18 x8 * x20 - 54 x8 * x21 - 2 x8 * x23 - 50 x8 * x24 + 22 x8 * x25
   + 96 x8 * x26 - 90 x8 * x27 + 26 x8 * x32 - 62 x8 * x35 - 18 x8 * x38
   - 48 x8 * x41 + 70 x8 * x42 - 6 x8 * x44 - 50 x8 * x45 + 50 x8 * x46
   - 26 x8 * x50 + 2 x8 * x51 - 96 x8 * x53 + 34 x8 * x55 - 14 x8 * x57
   - 84 x8 * x58 - 46 x8 * x59 - 16 x8 * x60 + 6 x8 * x62 - 32 x8 * x63
   + 40 x8 * x64 - 38 x8 * x65 + 12 x9 ^2 + 74 x9 * x12 - 32 x9 * x14
   - 38 x9 * x19 - 58 x9 * x21 - 4 x9 * x24 - 44 x9 * x25 + 8 x9 * x29
   + 66 x9 * x30 - 2 x9 * x31 + 70 x9 * x34 - 24 x9 * x35 + 86 x9 * x36
   + 38 x9 * x43 - 82 x9 * x45 + 42 x9 * x46 - 28 x9 * x47 + 6 x9 * x52
   + 52 x9 * x53 + 50 x9 * x54 + 38 x9 * x55 + 30 x9 * x57 + 34 x9 * x60
   + 76 x9 * x61 - 66 x9 * x65 - 98 x9 * x66 + 60 x9 * x67 + 50 x9 * x69
   + 44 x10 ^2 - 74 x10 * x12 + 24 x10 * x13 - 40 x10 * x15 - 48 x10 * x18
   + 38 x10 * x23 + 6 x10 * x24 + 60 x10 * x25 + 4 x10 * x26 - 8 x10 * x29
   - 30 x10 * x30 + 34 x10 * x31 + 48 x10 * x32 + 18 x10 * x36
   - 90 x10 * x41 + 4 x10 * x43 + 2 x10 * x46 - 38 x10 * x47 + 94 x10 * x50
   - 60 x10 * x52 - 78 x10 * x53 - 48 x10 * x54 - 78 x10 * x55
   - 92 x10 * x56 - 36 x10 * x57 - 56 x10 * x58 + 58 x10 * x61
   - 62 x10 * x62 - 4 x10 * x64 - 38 x10 * x67 + 64 x10 * x69
   - 20 x11 * x12 + 34 x11 * x14 + 58 x11 * x16 + 24 x11 * x19
   - 80 x11 * x20 - 98 x11 * x22 + 48 x11 * x23 + 80 x11 * x24
   - 4 x11 * x25 + 4 x11 * x27 + 32 x11 * x29 - 50 x11 * x30 + 58 x11 * x33
   - 24 x11 * x35 + 56 x11 * x36 + 70 x11 * x37 + 10 x11 * x38
   + 80 x11 * x39 + 78 x11 * x41 - 34 x11 * x43 + 8 x11 * x44
   - 76 x11 * x45 - 48 x11 * x46 + 14 x11 * x47 + 56 x11 * x49
   - 48 x11 * x50 - 42 x11 * x51 + 18 x11 * x56 + 10 x11 * x59
   - 92 x11 * x60 - 40 x11 * x61 + 58 x11 * x63 + 4 x11 * x66
   - 80 x12 * x13 - 86 x12 * x20 + 76 x12 * x21 - 78 x12 * x27
   + 6 x12 * x32 + 44 x12 * x34 + 20 x12 * x35 - 20 x12 * x42
   - 46 x12 * x43 + 48 x12 * x44 - 18 x12 * x45 - 72 x12 * x47
   - 36 x12 * x48 - 84 x12 * x49 + 64 x12 * x53 - 6 x12 * x54
   - 62 x12 * x57 + 58 x12 * x58 + 34 x12 * x59 - 14 x12 * x61
   + 84 x12 * x62 - 8 x12 * x63 + 70 x12 * x66 - 36 x13 ^2 + 44 x13 * x15
   + 2 x13 * x16 + 50 x13 * x18 + 18 x13 * x20 - 14 x13 * x21
   - 90 x13 * x22 - 82 x13 * x23 - 38 x13 * x24 - 6 x13 * x26 + 6 x13 * x27
   + 26 x13 * x28 - 14 x13 * x29 - 76 x13 * x32 - 30 x13 * x33
   + 96 x13 * x34 - 2 x13 * x35 + 40 x13 * x37 - 46 x13 * x39
   - 52 x13 * x40 + 76 x13 * x46 + 4 x13 * x49 - 20 x13 * x51
   + 78 x13 * x54 - 24 x13 * x55 + 18 x13 * x58 + 24 x13 * x60
   + 28 x13 * x62 + 10 x13 * x64 - 70 x13 * x67 + 92 x14 * x15
   - 50 x14 * x17 + 18 x14 * x18 - 44 x14 * x20 + 76 x14 * x22
   - 78 x14 * x28 - 92 x14 * x29 - 84 x14 * x30 - 8 x14 * x32
   - 44 x14 * x34 - 74 x14 * x38 - 64 x14 * x39 - 30 x14 * x41
   - 78 x14 * x42 - 62 x14 * x45 - 58 x14 * x52 + 66 x14 * x56
   - 20 x14 * x57 + 42 x14 * x58 + 70 x14 * x59 - 82 x14 * x63
   + 56 x14 * x65 - 88 x14 * x66 - 74 x15 * x16 + 74 x15 * x17
   - 96 x15 * x19 - 10 x15 * x22 + 52 x15 * x26 + 64 x15 * x28
   + 16 x15 * x29 + 74 x15 * x34 - 16 x15 * x35 - 10 x15 * x37
   - 94 x15 * x40 - 88 x15 * x44 - 54 x15 * x49 + 54 x15 * x50
   + 62 x15 * x52 + 86 x15 * x53 + 96 x15 * x54 - 74 x15 * x55
   + 48 x15 * x56 + 50 x15 * x57 - 6 x15 * x63 + 38 x15 * x66
   + 70 x15 * x68 - 92 x16 * x17 + 66 x16 * x18 + 18 x16 * x19
   - 60 x16 * x21 + 16 x16 * x23 - 68 x16 * x26 + 10 x16 * x27
   + 16 x16 * x28 + 76 x16 * x30 - 98 x16 * x34 + 68 x16 * x35
   + 94 x16 * x37 - 90 x16 * x42 + 16 x16 * x43 - 26 x16 * x50
   + 58 x16 * x51 - 74 x16 * x52 - 10 x16 * x53 + 72 x16 * x54
   - 64 x16 * x55 - 80 x16 * x56 + 96 x16 * x57 + 92 x16 * x58
   - 88 x16 * x59 - 18 x16 * x63 + 68 x16 * x67 + 20 x17 * x18
   + 32 x17 * x22 + 66 x17 * x23 - 42 x17 * x25 + 40 x17 * x27
   + 58 x17 * x28 - 8 x17 * x30 - 98 x17 * x31 + 88 x17 * x35
   - 20 x17 * x36 + 4 x17 * x39 - 50 x17 * x40 + 46 x17 * x41
   - 90 x17 * x43 + 60 x17 * x44 - 10 x17 * x48 + 46 x17 * x51
   + 74 x17 * x53 + 82 x17 * x54 + 96 x17 * x60 + 14 x17 * x62
   - 10 x17 * x64 - 40 x17 * x65 - 90 x17 * x66 - 30 x17 * x68
   - 86 x18 * x19 - 40 x18 * x21 + 22 x18 * x23 + 22 x18 * x28
   - 78 x18 * x29 + 24 x18 * x37 - 10 x18 * x38 + 52 x18 * x39
   - 32 x18 * x40 - 80 x18 * x42 - 34 x18 * x43 + 98 x18 * x44
   - 18 x18 * x46 - 60 x18 * x48 + 28 x18 * x50 - 16 x18 * x52
   + 64 x18 * x53 + 90 x18 * x54 - 70 x18 * x55 + 8 x18 * x56
   + 44 x18 * x59 + 22 x18 * x61 + 24 x18 * x62 + 96 x18 * x66
   + 96 x18 * x67 - 28 x18 * x68 - 42 x19 * x22 - 56 x19 * x23
   - 74 x19 * x24 - 82 x19 * x32 - 78 x19 * x33 + 10 x19 * x34
   - 8 x19 * x35 + 70 x19 * x38 - 16 x19 * x39 + 52 x19 * x40
   - 64 x19 * x43 + 22 x19 * x49 + 28 x19 * x51 - 36 x19 * x52
   - 46 x19 * x54 + 88 x19 * x56 + 42 x19 * x57 + 42 x19 * x58
   - 58 x19 * x59 + 70 x19 * x60 - 60 x19 * x63 - 94 x19 * x64
   - 74 x19 * x66 - 24 x19 * x67 - 34 x19 * x68 - 82 x19 * x69 + 34 x20 ^2
   - 30 x20 * x24 + 76 x20 * x25 - 42 x20 * x26 + 80 x20 * x28
   - 12 x20 * x30 - 32 x20 * x31 - 96 x20 * x37 - 70 x20 * x38
   - 4 x20 * x41 + 88 x20 * x44 - 54 x20 * x47 + 92 x20 * x48
   - 38 x20 * x49 - 82 x20 * x51 + 10 x20 * x54 + 8 x20 * x55
   - 12 x20 * x56 - 68 x20 * x57 - 8 x20 * x58 - 42 x20 * x61
   - 26 x20 * x66 - 14 x21 * x23 - 10 x21 * x25 - 80 x21 * x26
   + 46 x21 * x29 - 80 x21 * x30 - 24 x21 * x31 - 52 x21 * x32
   - 66 x21 * x33 + 18 x21 * x42 + 28 x21 * x43 + 46 x21 * x44
   + 50 x21 * x45 + 42 x21 * x46 + 60 x21 * x50 - 42 x21 * x51
   - 54 x21 * x53 + 60 x21 * x55 + 88 x21 * x60 + 44 x21 * x61
   - 80 x21 * x62 - 46 x21 * x63 - 2 x21 * x66 - 15 x22 ^2 + 4 x22 * x23
   - 54 x22 * x25 - 24 x22 * x31 - 10 x22 * x34 + 14 x22 * x35
   + 90 x22 * x36 - 50 x22 * x38 - 76 x22 * x40 + 72 x22 * x41
   - 82 x22 * x46 - 12 x22 * x48 + 22 x22 * x49 + 80 x22 * x51
   + 58 x22 * x52 - 12 x22 * x53 + 50 x22 * x57 + 82 x22 * x62
   + 74 x22 * x67 - 4 x22 * x69 - 20 x23 ^2 - 4 x23 * x25 - 62 x23 * x27
   + 92 x23 * x29 - 38 x23 * x32 - 18 x23 * x34 + 96 x23 * x36
   - 94 x23 * x37 - 10 x23 * x38 - 10 x23 * x39 + 72 x23 * x40
   + 56 x23 * x42 + 54 x23 * x45 - 88 x23 * x47 + 8 x23 * x50
   - 10 x23 * x51 - 6 x23 * x56 - 80 x23 * x57 - 48 x23 * x63
   - 40 x23 * x64 - 18 x23 * x65 + 96 x23 * x66 - 72 x23 * x67
   + 58 x23 * x68 - 56 x23 * x69 - 15 x24 ^2 - 80 x24 * x25 - 94 x24 * x27
   - 84 x24 * x31 - 6 x24 * x32 - 52 x24 * x35 + 24 x24 * x36
   - 30 x24 * x39 - 2 x24 * x41 - 52 x24 * x46 - 14 x24 * x48 - 6 x24 * x51
   - 82 x24 * x53 - 78 x24 * x56 - 32 x24 * x58 + 46 x24 * x62
   - 28 x24 * x66 + 22 x24 * x69 + 28 x25 * x28 + 56 x25 * x30
   + 12 x25 * x31 + 72 x25 * x32 - 34 x25 * x33 + 68 x25 * x37
   - 16 x25 * x39 + 68 x25 * x40 - 32 x25 * x41 + 62 x25 * x43
   - 86 x25 * x48 + 40 x25 * x49 - 32 x25 * x50 - 2 x25 * x52
   + 78 x25 * x54 - 24 x25 * x56 + 18 x25 * x57 + 86 x25 * x58
   - 42 x25 * x60 + 16 x25 * x62 + 12 x25 * x63 + 46 x25 * x64 + 47 x26 ^2
   + 94 x26 * x29 - 94 x26 * x30 + 30 x26 * x32 - 44 x26 * x34
   - 58 x26 * x37 + 74 x26 * x38 - 58 x26 * x41 - 18 x26 * x49
   - 92 x26 * x51 + 26 x26 * x52 + 16 x26 * x54 + 86 x26 * x57
   + 8 x26 * x59 - 96 x26 * x62 - 24 x26 * x63 + 46 x26 * x64
   - 32 x26 * x65 + 72 x26 * x67 + 42 x26 * x69 + 10 x27 * x28
   + 78 x27 * x29 + 2 x27 * x30 - 18 x27 * x31 + 42 x27 * x35
   + 52 x27 * x37 + 56 x27 * x39 - 82 x27 * x40 + 22 x27 * x41
   - 50 x27 * x42 + 26 x27 * x43 - 6 x27 * x46 + 6 x27 * x47 + 52 x27 * x48
   + 64 x27 * x50 + 60 x27 * x51 + 54 x27 * x52 - 46 x27 * x53
   + 52 x27 * x54 + 28 x27 * x58 - 70 x27 * x61 + 42 x27 * x67
   + 2 x27 * x68 - 26 x28 * x29 + 88 x28 * x36 - 22 x28 * x41
   - 24 x28 * x42 + 22 x28 * x44 - 28 x28 * x45 - 80 x28 * x47
   + 70 x28 * x48 - 72 x28 * x51 - 4 x28 * x52 + 6 x28 * x54 - 40 x28 * x64
   - 30 x28 * x65 + 20 x28 * x67 + 26 x28 * x68 - 80 x29 * x30
   - 28 x29 * x32 - 16 x29 * x35 - 62 x29 * x36 - 72 x29 * x39
   + 44 x29 * x43 + 72 x29 * x44 + 60 x29 * x53 - 36 x29 * x55
   + 58 x29 * x59 + 76 x29 * x60 - 24 x29 * x61 + 78 x29 * x62
   - 86 x30 * x31 + 50 x30 * x37 + 84 x30 * x40 + 8 x30 * x44
   - 10 x30 * x47 + 98 x30 * x49 - 84 x30 * x50 - 6 x30 * x51
   + 50 x30 * x53 + 62 x30 * x61 + 62 x30 * x62 - 72 x30 * x63
   + 20 x30 * x65 - 22 x30 * x67 + 32 x30 * x68 + 31 x31 ^2 - 30 x31 * x34
   + 52 x31 * x36 - 54 x31 * x37 + 90 x31 * x41 + 14 x31 * x43
   - 86 x31 * x45 - 4 x31 * x46 - 62 x31 * x47 + 76 x31 * x48
   + 26 x31 * x51 - 84 x31 * x52 - 40 x31 * x53 - 34 x31 * x54
   - 68 x31 * x55 + 68 x31 * x57 + 32 x31 * x59 - 20 x31 * x61
   + 46 x31 * x62 - 42 x31 * x63 - 70 x31 * x64 - 60 x31 * x65
   - 84 x31 * x66 - 30 x32 * x42 - 42 x32 * x43 + 16 x32 * x44
   - 38 x32 * x45 + 74 x32 * x46 - 96 x32 * x47 - 22 x32 * x48
   + 16 x32 * x49 - 12 x32 * x51 + 92 x32 * x54 + 48 x32 * x56
   + 48 x32 * x58 + 86 x32 * x61 - 22 x32 * x63 - 82 x32 * x65
   + 98 x32 * x67 + 96 x32 * x69 - 2 x33 ^2 - 26 x33 * x37 + 24 x33 * x41
   + 4 x33 * x44 + 40 x33 * x50 - 44 x33 * x54 - 44 x33 * x56
   - 24 x33 * x66 - 74 x33 * x67 - 46 x33 * x69 - 44 x34 ^2 - 32 x34 * x35
   + 50 x34 * x38 - 42 x34 * x39 - 34 x34 * x42 - 98 x34 * x44
   - 60 x34 * x45 - 8 x34 * x46 + 48 x34 * x49 - 56 x34 * x51
   + 28 x34 * x52 + 54 x34 * x53 + 6 x34 * x57 + 24 x34 * x58
   + 28 x34 * x59 + 38 x34 * x60 - 76 x34 * x62 - 82 x34 * x64
   - 12 x34 * x65 - 30 x34 * x67 - 20 x34 * x68 - 16 x35 ^2 - 32 x35 * x36
   + 24 x35 * x39 - 4 x35 * x40 - 42 x35 * x42 - 58 x35 * x43
   - 58 x35 * x44 + 88 x35 * x45 + 46 x35 * x47 - 66 x35 * x49
   - 2 x35 * x55 - 10 x35 * x57 + 32 x35 * x58 - 4 x35 * x59 - 16 x35 * x62
   + 28 x35 * x64 - 4 x35 * x67 - 8 x35 * x69 - 82 x36 * x39 + 90 x36 * x40
   - 84 x36 * x44 - 4 x36 * x45 - 94 x36 * x53 - 96 x36 * x55
   - 12 x36 * x60 - 56 x36 * x66 - 88 x36 * x69 - 74 x37 * x38
   + 40 x37 * x41 - 10 x37 * x44 - 32 x37 * x45 - 8 x37 * x47 - 2 x37 * x51
   + 52 x37 * x52 + 88 x37 * x54 + 90 x37 * x56 - 12 x37 * x61
   - 50 x37 * x62 + 90 x37 * x64 - 42 x37 * x65 + 4 x37 * x67
   - 78 x37 * x68 + 19 x38 ^2 + 8 x38 * x40 + 10 x38 * x41 + 28 x38 * x42
   - 90 x38 * x46 + 16 x38 * x51 - 94 x38 * x53 - 72 x38 * x57
   + 10 x38 * x60 + 86 x38 * x65 - 62 x38 * x67 + 2 x39 ^2 - 22 x39 * x40
   - 36 x39 * x41 - 22 x39 * x42 + 22 x39 * x43 - 24 x39 * x48
   - 12 x39 * x51 - 24 x39 * x52 + 90 x39 * x53 + 88 x39 * x54
   - 42 x39 * x55 - 96 x39 * x56 + 74 x39 * x57 - 82 x39 * x58
   - 4 x39 * x59 - 6 x39 * x60 + 94 x39 * x61 + 90 x39 * x63 + 84 x39 * x64
   + 48 x39 * x66 + 62 x40 * x41 + 82 x40 * x43 + 86 x40 * x44
   - 8 x40 * x47 + 74 x40 * x54 + 92 x40 * x57 - 8 x40 * x59 + 40 x40 * x64
   - 84 x40 * x66 - 70 x40 * x67 - 12 x40 * x69 + 42 x41 ^2 + 78 x41 * x43
   - 92 x41 * x44 + 56 x41 * x47 + 90 x41 * x49 + 40 x41 * x52
   - 14 x41 * x53 + 56 x41 * x54 - 28 x41 * x58 - 38 x41 * x59
   - 62 x41 * x60 + 10 x41 * x63 - 4 x41 * x64 - 80 x41 * x65
   + 50 x41 * x68 + 8 x41 * x69 + 44 x42 ^2 + 82 x42 * x45 + 22 x42 * x47
   + 28 x42 * x49 + 60 x42 * x50 + 78 x42 * x51 + 98 x42 * x52
   - 38 x42 * x53 - 6 x42 * x54 - 38 x42 * x57 + 54 x42 * x59
   + 36 x42 * x60 + 12 x42 * x69 - 42 x43 ^2 + 68 x43 * x44 + 64 x43 * x52
   + 16 x43 * x53 + 24 x43 * x54 - 30 x43 * x55 + 22 x43 * x56
   + 34 x43 * x57 - 66 x43 * x59 - 60 x43 * x60 + 26 x43 * x62
   - 30 x43 * x65 + 46 x43 * x66 + 34 x43 * x69 - 46 x44 * x47
   + 14 x44 * x55 - 92 x44 * x56 + 70 x44 * x57 - 86 x44 * x59
   + 98 x44 * x64 - 66 x44 * x65 + 34 x44 * x66 + 60 x45 * x46
   + 68 x45 * x47 + 38 x45 * x49 + 76 x45 * x50 - 72 x45 * x54
   + 98 x45 * x55 - 70 x45 * x56 + 50 x45 * x58 + 60 x45 * x60
   - 78 x45 * x61 - 96 x45 * x62 + 88 x45 * x64 + 6 x45 * x65
   + 20 x45 * x66 - 36 x45 * x67 - 20 x45 * x68 - 28 x46 ^2 - 38 x46 * x47
   + 92 x46 * x51 - 64 x46 * x64 + 36 x46 * x66 - 92 x46 * x67
   - 78 x46 * x69 + 14 x47 * x52 + 70 x47 * x54 + 20 x47 * x56
   - 50 x47 * x59 - 86 x47 * x60 - 72 x47 * x62 + 50 x47 * x63
   + 44 x47 * x64 + 80 x47 * x66 - 78 x47 * x68 + 88 x47 * x69
   - 94 x48 * x49 - 96 x48 * x51 + 30 x48 * x53 + 46 x48 * x57
   + 88 x48 * x60 - 24 x48 * x62 - 24 x48 * x63 + 52 x48 * x64
   - 28 x48 * x66 - 48 x48 * x67 + 78 x48 * x68 + 90 x48 * x69 + 18 x49 ^2
   + 56 x49 * x50 - 54 x49 * x51 + 58 x49 * x58 + 12 x49 * x60
   + 34 x49 * x62 + 96 x49 * x64 - 24 x49 * x65 + 44 x50 ^2 - 86 x50 * x52
   + 66 x50 * x53 + 64 x50 * x55 + 80 x50 * x56 + 14 x50 * x57
   + 78 x50 * x63 + 78 x50 * x65 + 64 x50 * x66 + 58 x50 * x69
   - 34 x51 * x55 + 32 x51 * x57 + 10 x51 * x63 - 38 x51 * x66
   + 70 x52 * x56 - 24 x52 * x57 + 80 x52 * x58 + 62 x52 * x59
   - 74 x52 * x60 - 86 x52 * x62 - 38 x52 * x65 + 92 x52 * x66
   + 32 x52 * x69 + 36 x53 * x54 - 48 x53 * x55 - 80 x53 * x57
   + 54 x53 * x58 - 92 x53 * x59 + 92 x53 * x60 + 56 x53 * x65
   - 62 x53 * x68 - 72 x54 * x55 + 98 x54 * x56 - 82 x54 * x59
   - 48 x54 * x61 - 98 x54 * x69 - 74 x55 * x58 - 46 x55 * x59
   - 26 x55 * x63 + 42 x55 * x64 - 96 x55 * x65 + 98 x55 * x66
   + 64 x55 * x68 + 66 x55 * x69 + 37 x56 ^2 + 38 x56 * x59 + 64 x56 * x60
   - 14 x56 * x61 + 50 x56 * x62 + 64 x56 * x63 - 22 x56 * x66 - 29 x57 ^2
   + 38 x57 * x58 + 90 x57 * x59 - 28 x57 * x61 + 34 x57 * x62
   + 86 x57 * x63 - 38 x57 * x67 + 34 x58 ^2 + 62 x58 * x59 - 74 x58 * x60
   + 46 x58 * x61 + 44 x58 * x63 + 50 x58 * x65 - 40 x58 * x66
   - 96 x58 * x67 - 31 x59 ^2 - 30 x59 * x60 + 86 x59 * x63 - 80 x59 * x66
   + 28 x59 * x67 - 32 x59 * x68 - 30 x60 * x63 - 42 x60 * x66 + 33 x61 ^2
   - 26 x61 * x63 - 54 x61 * x65 + 92 x61 * x66 - 70 x61 * x67
   - 16 x62 * x64 - 86 x62 * x65 - 32 x62 * x69 + 88 x63 * x65
   + 2 x63 * x66 - 2 x63 * x69 - 96 x64 * x68 - 88 x64 * x69 + 13 x65 ^2
   - 44 x65 * x66 - 30 x65 * x67 - 2 x65 * x68 - 76 x65 * x69
   - 70 x66 * x69 - 2 x67 ^2 - 60 x67 * x69 + 39 x69 ^2 ] / 2 
Subject To
Bounds
 x0 <= 1
 x1 <= 1
 x2 <= 1
 x3 <= 1
 x4 <= 1
 x5 <= 1
 x6 <= 1
 x7 <= 1
 x8 <= 1
 x9 <= 1
 x10 <= 1
 x11 <= 1
 x12 <= 1
 x13 <= 1
 x14 <= 1
 x15 <= 1
 x16 <= 1
 x17 <= 1
 x18 <= 1
 x19 <= 1
 x20 <= 1
 x21 <= 1
 x22 <= 1
 x23 <= 1
 x24 <= 1
 x25 <= 1
 x26 <= 1
 x27 <= 1
 x28 <= 1
 x29 <= 1
 x30 <= 1
 x31 <= 1
 x32 <= 1
 x33 <= 1
 x34 <= 1
 x35 <= 1
 x36 <= 1
 x37 <= 1
 x38 <= 1
 x39 <= 1
 x40 <= 1
 x41 <= 1
 x42 <= 1
 x43 <= 1
 x44 <= 1
 x45 <= 1
 x46 <= 1
 x47 <= 1
 x48 <= 1
 x49 <= 1
 x50 <= 1
 x51 <= 1
 x52 <= 1
 x53 <= 1
 x54 <= 1
 x55 <= 1
 x56 <= 1
 x57 <= 1
 x58 <= 1
 x59 <= 1
 x60 <= 1
 x61 <= 1
 x62 <= 1
 x63 <= 1
 x64 <= 1
 x65 <= 1
 x66 <= 1
 x67 <= 1
 x68 <= 1
 x69 <= 1
End
